0000000000000000
0000000000000000
0011110000111000
0001110000111000
0001110000111000
0000110000111000
0000111001111000
0001111111110000
0001111111110000
0011100111100000
0011100011100000
0011100011110000
0011100001111000
0000000000000000
0000000000000000
0000000000000000
